



















































































59 6 
9 52 42 
46 74 51 
26 7 53 
19 44 
71 8 48 
73 24 47 
36 1 65 
49 22 
12 18 
43 16 
62 31 
38 13 
25 60 
2 75 
33 14 
54 45 64 
35 63 23 
56 5 10 
50 17 
61 55 
40 76 3 
32 29 
28 21 67 
70 4 
58 20 27 
41 39 72 
57 69 
37 15 
34 0 11 
30 66 68 
